168
1 7 12 13 18 19 25 33 40 56 58 88 96 112 136 186 227 333 405 894 936 996 1116 1183 155 375 377 592 707 867 1617 1761 152 214 391 1002 1216 1316 1329 29 149 404 653 776 931 1059 1600 251 637 702 935 940 1069 194 540 574 1484 1520 1589 1714 28 166 1181 53 422 456 738 825 1047 211 548 705 756 813 1596 1646 159 396 554 737 1125 1360 1525 47 116 283 415 524 700 1519 143 521 614 790 857 1251 1301 1350 1430 1527 1627 432 676 885 998 1374 201 219 424 974 1168 1414 1449 1673 558 619 771 841 869 6 132 410 500 715 842 1070 1377 1586 1615 14 107 216 429 509 534 1255 1308 259 290 397 507 759 43 133 318 494 1500 1509 3 436 859 603 556 1691 355 1100 1563 111 1365 378 125 1382 1290 1202 187 1434 457 855
